#
# From Numberjack Tutorial, page 24 (slide 51/175)
#

param num_items := 4;
param num_bids := 5;
param max_item = 4;

# packages = [
#    {1,2},
#    {1,3},
#    {2,4},
#    {2,3,4},
#    {1}
# ];
param packages: 1 2 3 4 :=
 #  1 2 3 4
 1  1 1 . . 
 2  1 . 1 . 
 3  . 1 . 1
 4  . 1 1 1 
 5  1 . . . 
;

param bids := 
  1 8
  2 6
  3 5 
  4 2
  5 2
;
